proyfinal/src/viki/013/andrea/andrea-localstore/experimentInOfficeAgust.take6/worker_8/0602af59-49f8-48d8-b291-0c4e08402f70.als.cnf.out
Reading from standard input... Use '--help' for help.
============================[ Problem Statistics ]=============================
|                                                                             |
|  Number of variables:         87638                                         |
|  Number of clauses:          161767                                         |
|  Parse time:                   0.04 s                                       |
|                                                                             |
============================[ Search Statistics ]==============================
| Conflicts |          ORIGINAL         |          LEARNT          | Progress |
|           |    Vars  Clauses Literals |    Limit  Clauses Lit/Cl |          |
===============================================================================
|       100 |   62771   106568   266226 |    39074      100      9 | 28.375 % |
|       250 |   62771   106568   266226 |    42982      250     49 | 28.375 % |
|       475 |   62771   106568   266226 |    47280      475     82 | 28.375 % |
|       812 |   62747   106468   265997 |    52008      520     65 | 28.402 % |
|      1318 |   62746   106424   265907 |    57209     1022     73 | 28.403 % |
|      2077 |   62706   106340   265714 |    62930     1777     73 | 28.449 % |
|      3216 |   62706   106262   265533 |    69223     2915     77 | 28.449 % |
|      4924 |   62665   106094   265146 |    76145     4617     80 | 28.496 % |
|      7486 |   62639   105951   264834 |    83760     6110     75 | 28.525 % |
|     11330 |   62622   105883   264673 |    92136     9951     81 | 28.545 % |
|     17096 |   62562   105639   264105 |   101350    15710     85 | 28.613 % |
===============================================================================
restarts              : 76
conflicts             : 21252          (6280 /sec)
decisions             : 59593          (0.00 % random) (17610 /sec)
propagations          : 31565913       (9327958 /sec)
conflict literals     : 1695103        (55.59 % deleted)
Memory used           : 46.75 MB
CPU time              : 3.38401 s

INDETERMINATE
